branch-and-cut/resultados/I080/i080-003.sol
1713
10
56 43
41 43
1 56
56 6
56 3
1 7
4 40
2 41
7 5
56 40
